; benchmark generated from python API
(set-info :status unknown)
(declare-datatypes ((RealState 0)) (((RMk1 (rval1 Real)) (RMk2 (rval2 Real)))))
 (assert
 (forall ((|v17:0| Real) )(forall ((|v16:1| Real) )(forall ((|v15:2| Real) )(forall ((|v14:3| Real) )(forall ((|v13:4| Real) )(forall ((|v12:5| Real) )(exists ((|v11:6_st| RealState) (val!9306 Real) )(exists ((|v10:7_st| RealState) (val!9307 Real) )(exists ((|v9:8_st| RealState) (val!9308 Real) )(exists ((|v8:9_st| RealState) (val!9309 Real) )(exists ((|v7:10_st| RealState) (val!9310 Real) )(exists ((|v6:11_st| RealState) (val!9311 Real) )(forall ((|v5:12| Real) )(forall ((|v4:13| Real) )(forall ((|v3:14| Real) )(forall ((|v2:15| Real) )(forall ((|v1:16| Real) )(forall ((|v0:17| Real) )(let ((?x1580 (- 1.0)))
 (let ((?x3139 (* ?x1580 |v1:16|)))
 (let ((?x282 (* 16.0 |v15:2|)))
 (let ((?x156 (- 17.0)))
 (let ((?x1782 (* ?x156 |v2:15|)))
 (let ((?x7683 (- 11.0)))
 (let ((?x6780 (* ?x7683 |v13:4|)))
 (let ((?x2163 (+ (+ (+ (* (- 6.0) (rval2 |v10:7_st|)) (* ?x1580 (rval2 |v11:6_st|))) ?x6780) ?x1782)))
 (let ((?x7247 (- 20.0)))
 (let ((?x4450 (- 18.0)))
 (let ((?x7971 (* ?x4450 |v5:12|)))
 (let ((?x8130 (* ?x7683 |v2:15|)))
 (let ((?x4682 (+ (+ (+ (* 4.0 |v15:2|) (* ?x7683 |v17:0|)) (* 6.0 |v12:5|)) (* ?x1580 |v17:0|))))
 (let (($x7669 (and (<= (+ (+ (+ ?x4682 (* (- 5.0) (rval2 |v6:11_st|))) ?x8130) ?x7971) ?x7247) (<= (+ (+ (+ ?x2163 ?x282) |v16:1|) ?x3139) 0.0))))
 (let ((?x5793 (* 15.0 |v0:17|)))
 (let ((?x6417 (- 9.0)))
 (let ((?x9068 (* ?x6417 |v3:14|)))
 (let ((?x1801 (* 7.0 |v4:13|)))
 (let ((?x7192 (+ (+ (+ |v16:1| (* (- 5.0) (rval2 |v10:7_st|))) (* 7.0 |v17:0|)) (* (- 7.0) |v13:4|))))
 (let ((?x4020 (* 8.0 |v13:4|)))
 (let ((?x3089 (* ?x1580 |v2:15|)))
 (let ((?x1566 (* ?x7247 |v5:12|)))
 (let ((?x2203 (rval2 |v8:9_st|)))
 (let ((?x3716 (* 19.0 ?x2203)))
 (let ((?x2374 (+ (+ (+ (+ (+ (* ?x7683 |v3:14|) (* (- 4.0) ?x2203)) ?x3716) ?x1566) ?x3089) ?x4020)))
 (let (($x5751 (or (<= (+ ?x2374 ?x7971) ?x156) (<= (+ (+ (+ ?x7192 ?x1801) ?x9068) ?x5793) 8.0))))
 (let ((?x3131 (* 13.0 |v17:0|)))
 (let ((?x4027 (* 15.0 |v3:14|)))
 (let ((?x4576 (* 10.0 |v13:4|)))
 (let ((?x5995 (+ (+ (+ (+ (* 11.0 |v16:1|) (* (- 8.0) |v0:17|)) (* ?x6417 |v12:5|)) ?x4576) ?x4027)))
 (let ((?x6831 (- 3.0)))
 (let ((?x788 (rval2 |v6:11_st|)))
 (let ((?x4599 (* ?x156 ?x788)))
 (let ((?x4265 (- 4.0)))
 (let ((?x5150 (* ?x4265 |v1:16|)))
 (let ((?x3175 (- 5.0)))
 (let ((?x3013 (* ?x3175 |v4:13|)))
 (let ((?x5816 (* 20.0 |v13:4|)))
 (let ((?x8134 (+ (+ (+ (+ (* 14.0 |v12:5|) (* ?x3175 |v17:0|)) (* 18.0 ?x788)) ?x5816) ?x3013)))
 (let (($x1071 (and (<= (+ (+ ?x8134 ?x5150) ?x4599) ?x6831) (<= (+ (+ ?x5995 ?x3131) (* ?x156 |v15:2|)) 14.0))))
 (let ((?x8810 (- 7.0)))
 (let ((?x5707 (* ?x8810 |v15:2|)))
 (let ((?x1449 (* ?x4450 |v0:17|)))
 (let ((?x745 (+ (+ (+ (+ (* ?x7247 (rval2 |v9:8_st|)) ?x1801) (* 7.0 (rval2 |v7:10_st|))) ?x5707) ?x1449)))
 (let ((?x4963 (* 13.0 |v5:12|)))
 (let ((?x1191 (- 16.0)))
 (let ((?x7658 (* ?x1191 |v0:17|)))
 (let ((?x7482 (* 2.0 ?x2203)))
 (let ((?x458 (+ (+ (+ (* 4.0 |v0:17|) (* (- 12.0) |v0:17|)) (* 15.0 |v5:12|)) (* ?x6417 |v1:16|))))
 (let (($x3290 (and (<= (+ (+ (+ ?x458 ?x7482) ?x7658) ?x4963) 5.0) (<= (+ (+ ?x745 (* 19.0 |v15:2|)) ?x5707) 1.0))))
 (let ((?x3048 (* 19.0 |v0:17|)))
 (let ((?x108 (- 12.0)))
 (let ((?x2907 (* ?x108 |v12:5|)))
 (let ((?x5986 (* 19.0 |v12:5|)))
 (let ((?x8099 (rval2 |v10:7_st|)))
 (let ((?x4251 (* 16.0 ?x8099)))
 (let ((?x7125 (+ (+ (+ (+ (* 5.0 |v1:16|) (* 15.0 (rval2 |v7:10_st|))) ?x4251) ?x5986) ?x2907)))
 (let ((?x7993 (rval2 |v11:6_st|)))
 (let ((?x1207 (* 7.0 ?x7993)))
 (let ((?x6905 (- 2.0)))
 (let ((?x4330 (* ?x6905 |v0:17|)))
 (let ((?x2329 (* 3.0 |v5:12|)))
 (let ((?x344 (+ (+ (+ (* 20.0 |v14:3|) (* 12.0 |v13:4|)) (* (- 15.0) ?x2203)) ?x2329)))
 (let (($x7103 (and (<= (+ (+ (+ ?x344 ?x4330) ?x1207) (* 13.0 |v12:5|)) 12.0) (<= (+ (+ ?x7125 (* 2.0 |v12:5|)) ?x3048) ?x7683))))
 (let ((?x252 (- 10.0)))
 (let ((?x4912 (* 18.0 |v0:17|)))
 (let ((?x735 (- 13.0)))
 (let ((?x3570 (* ?x735 |v5:12|)))
 (let ((?x3878 (+ (+ (+ (* 2.0 (rval2 |v7:10_st|)) (* ?x4265 ?x788)) (* (- 14.0) ?x788)) ?x3570)))
 (let ((?x1032 (* 9.0 |v0:17|)))
 (let ((?x9150 (* 14.0 |v13:4|)))
 (let ((?x422 (* 7.0 |v17:0|)))
 (let ((?x206 (+ (+ (+ (* ?x6831 |v4:13|) (* 14.0 (rval2 |v9:8_st|))) (* 0.0 |v2:15|)) ?x422)))
 (let (($x3682 (or (<= (+ (+ (+ ?x206 ?x9150) ?x1032) (* ?x6417 ?x788)) ?x156) (<= (+ (+ (+ ?x3878 |v5:12|) ?x4912) (* ?x108 (rval2 |v7:10_st|))) ?x252))))
 (let ((?x1915 (* ?x7683 |v15:2|)))
 (let ((?x2344 (+ (+ (+ (* ?x156 |v13:4|) (* 9.0 |v4:13|)) (* ?x156 (rval2 |v9:8_st|))) ?x1915)))
 (let (($x1618 (<= (+ (+ (+ ?x2344 (* ?x6417 ?x8099)) ?x2907) (* (- 15.0) (rval2 |v9:8_st|))) 3.0)))
 (let ((?x8788 (rval2 |v9:8_st|)))
 (let ((?x5485 (* 12.0 ?x8788)))
 (let ((?x7315 (* ?x252 |v13:4|)))
 (let ((?x6854 (* 10.0 ?x788)))
 (let ((?x3988 (+ (+ (+ (+ (* 6.0 |v13:4|) (* 2.0 |v14:3|)) (* ?x4450 |v4:13|)) ?x6854) ?x7315)))
 (let ((?x4541 (* 4.0 |v12:5|)))
 (let ((?x106 (* 20.0 |v4:13|)))
 (let ((?x2921 (+ (+ (+ (* 18.0 |v12:5|) (* (- 6.0) |v14:3|)) (* 14.0 |v3:14|)) ?x8130)))
 (let ((?x8423 (* ?x156 ?x8788)))
 (let ((?x7097 (* 0.0 |v1:16|)))
 (let ((?x1544 (+ (+ (+ (* (- 15.0) |v12:5|) (* (- 6.0) |v17:0|)) |v15:2|) (* 8.0 ?x7993))))
 (let (($x4091 (or (<= (+ (+ (+ ?x1544 ?x7097) ?x8423) ?x7315) 6.0) (<= (+ (+ (+ ?x2921 ?x4576) ?x106) ?x4541) 19.0))))
 (let (($x6240 (and $x4091 (and (<= (+ (+ ?x3988 (* (- 14.0) |v17:0|)) ?x5485) 18.0) $x1618))))
 (let ((?x373 (* 12.0 |v17:0|)))
 (let ((?x4722 (* 9.0 |v12:5|)))
 (let ((?x5700 (* 6.0 |v17:0|)))
 (let ((?x3613 (+ (+ (+ (+ (+ (* 14.0 ?x8788) (* ?x7247 |v14:3|)) |v1:16|) ?x1915) ?x5700) ?x4722)))
 (let ((?x1422 (* 20.0 ?x788)))
 (let ((?x5405 (* 0.0 |v12:5|)))
 (let ((?x5294 (* 20.0 ?x7993)))
 (let ((?x8937 (* ?x8810 ?x8099)))
 (let ((?x5669 (+ (+ (+ (* 7.0 |v12:5|) (* ?x6831 (rval2 |v7:10_st|))) (* (- 19.0) |v16:1|)) ?x8937)))
 (let (($x5688 (or (<= (+ (+ (+ ?x5669 ?x5294) ?x5405) ?x1422) ?x8810) (<= (+ ?x3613 ?x373) 8.0))))
 (let ((?x5494 (* 18.0 |v3:14|)))
 (let ((?x4398 (* ?x7683 |v1:16|)))
 (let ((?x3084 (* ?x4265 |v5:12|)))
 (let ((?x6290 (+ (+ (+ (* 20.0 |v12:5|) (* 6.0 |v3:14|)) (* (- 6.0) ?x2203)) ?x3084)))
 (let ((?x5962 (* ?x156 |v0:17|)))
 (let ((?x5038 (* 8.0 |v0:17|)))
 (let ((?x5116 (- 6.0)))
 (let ((?x1496 (* ?x5116 |v14:3|)))
 (let ((?x272 (* 10.0 ?x8099)))
 (let ((?x2226 (+ (+ (+ (* 8.0 |v3:14|) (* ?x7247 |v12:5|)) (* (- 19.0) (rval2 |v7:10_st|))) ?x272)))
 (let (($x3331 (or (<= (+ (+ (+ ?x2226 ?x1496) ?x5038) ?x5962) 11.0) (<= (+ (+ (+ ?x6290 ?x4398) ?x5494) ?x788) 5.0))))
 (let ((?x2673 (rval2 |v7:10_st|)))
 (let ((?x2016 (- 14.0)))
 (let ((?x18 (* ?x2016 ?x2673)))
 (let ((?x2644 (* ?x4265 |v0:17|)))
 (let ((?x4135 (+ (+ (+ (+ (* 17.0 |v13:4|) (* ?x5116 |v12:5|)) |v15:2|) (* 12.0 |v13:4|)) ?x2644)))
 (let ((?x8224 (+ (+ (+ (* ?x1191 |v4:13|) (* 19.0 |v1:16|)) (* ?x252 |v16:1|)) (* ?x108 |v15:2|))))
 (let ((?x4744 (* ?x4450 |v1:16|)))
 (let ((?x8487 (+ (+ (+ (+ (* 20.0 ?x8099) (* ?x6417 ?x7993)) (* ?x108 |v13:4|)) ?x4744) (* 5.0 |v16:1|))))
 (let (($x3573 (and (<= (+ (+ ?x8487 ?x4541) (* 6.0 |v14:3|)) ?x8810) (<= (+ (+ (+ ?x8224 ?x2644) |v0:17|) ?x3716) ?x6417))))
 (let (($x5745 (or (or $x3573 (<= (+ (+ ?x4135 (* ?x6905 ?x2673)) ?x18) ?x7683)) (and $x3331 $x5688))))
 (let ((?x6307 (* 16.0 ?x788)))
 (let ((?x5460 (* ?x2016 |v16:1|)))
 (let ((?x2486 (* ?x735 |v1:16|)))
 (let ((?x8920 (+ (+ (+ (+ (* 3.0 ?x8099) (* ?x7683 ?x8788)) (* 17.0 |v15:2|)) ?x2486) ?x5460)))
 (let ((?x5668 (* 10.0 |v3:14|)))
 (let ((?x7539 (- 8.0)))
 (let ((?x9027 (* ?x7539 ?x8788)))
 (let ((?x5195 (+ (+ (* ?x7539 |v5:12|) (* ?x7683 |v4:13|)) (* ?x7539 |v2:15|))))
 (let (($x8376 (<= (+ (+ (+ (+ ?x5195 ?x9027) (* ?x1191 |v14:3|)) ?x5668) (* 0.0 ?x8099)) 2.0)))
 (let ((?x20 (* ?x1580 ?x7993)))
 (let ((?x1201 (* ?x108 ?x7993)))
 (let ((?x925 (+ (+ (+ (+ (* ?x735 |v0:17|) (* 11.0 |v14:3|)) (* ?x6905 ?x8788)) ?x1801) ?x1201)))
 (let (($x8185 (and (<= (+ (+ ?x925 (* ?x4450 |v14:3|)) ?x20) 1.0) (or $x8376 (<= (+ (+ ?x8920 (* ?x1580 ?x2203)) ?x6307) 4.0)))))
 (let ((?x7248 (- 15.0)))
 (let ((?x6973 (* ?x7248 |v3:14|)))
 (let ((?x6310 (* 9.0 |v15:2|)))
 (let ((?x1685 (+ (+ (+ (+ (* ?x5116 ?x7993) ?x5405) (* (- 19.0) |v13:4|)) (* 14.0 |v3:14|)) ?x5986)))
 (let ((?x5009 (* 3.0 ?x788)))
 (let ((?x1364 (+ (+ (+ (+ (* ?x3175 |v3:14|) (* ?x7248 |v1:16|)) (* ?x252 ?x2203)) ?x1207) ?x5009)))
 (let (($x7139 (and (<= (+ (+ ?x1364 (* 14.0 ?x788)) (* ?x1191 |v12:5|)) 12.0) (<= (+ (+ ?x1685 ?x6310) ?x6973) 7.0))))
 (let ((?x9102 (* 18.0 ?x788)))
 (let ((?x2161 (* ?x6417 |v4:13|)))
 (let ((?x4567 (+ (+ (+ (+ (* 17.0 |v3:14|) (* ?x6831 ?x2203)) (* ?x1191 |v5:12|)) ?x2161) (* ?x3175 ?x8788))))
 (let ((?x3985 (- 19.0)))
 (let ((?x5981 (* ?x3985 |v13:4|)))
 (let ((?x2196 (* 19.0 ?x788)))
 (let ((?x2305 (* 12.0 |v2:15|)))
 (let ((?x6420 (* 15.0 |v2:15|)))
 (let ((?x4949 (+ (+ (+ (+ (* 0.0 |v14:3|) (* ?x2016 |v0:17|)) (* ?x7683 |v12:5|)) ?x6420) ?x2305)))
 (let (($x7633 (or (<= (+ (+ ?x4949 ?x2196) ?x5981) 8.0) (<= (+ (+ ?x4567 ?x9102) ?x2907) 1.0))))
 (let (($x1438 (or (and (and (and $x7633 $x7139) $x8185) $x5745) (or (and $x6240 (or $x3682 $x7103)) (or (or $x3290 $x1071) (or $x5751 $x7669))))))
 (let ((?x7243 (* ?x6905 ?x788)))
 (let ((?x7855 (* ?x6831 |v0:17|)))
 (let ((?x2918 (+ (+ (+ (+ (* 7.0 ?x2673) (* ?x252 ?x8099)) (* 2.0 ?x8099)) ?x5460) ?x7855)))
 (let ((?x5169 (* 10.0 |v4:13|)))
 (let ((?x3686 (* ?x2016 |v0:17|)))
 (let ((?x1299 (* ?x6905 ?x8788)))
 (let ((?x3615 (+ (+ (+ (+ (* ?x1580 |v4:13|) (* 18.0 |v5:12|)) (* ?x3985 |v16:1|)) ?x1299) ?x3686)))
 (let (($x7268 (or (<= (+ (+ ?x3615 ?x5169) (* ?x252 |v17:0|)) 10.0) (<= (+ (+ ?x2918 ?x8099) ?x7243) ?x5116))))
 (let ((?x4732 (* ?x4265 |v3:14|)))
 (let ((?x5083 (* ?x3985 |v3:14|)))
 (let ((?x2625 (+ (+ (+ (* 6.0 ?x8788) (* ?x4265 ?x8788)) (* 10.0 |v1:16|)) (* ?x6417 |v17:0|))))
 (let ((?x2418 (* ?x8810 |v4:13|)))
 (let ((?x7816 (* ?x5116 |v1:16|)))
 (let ((?x7857 (* ?x7247 |v0:17|)))
 (let ((?x4610 (+ (+ (+ (+ (* 2.0 |v1:16|) (* ?x6905 ?x2203)) (* ?x2016 ?x8788)) ?x7857) ?x7816)))
 (let ((?x3926 (* 7.0 |v14:3|)))
 (let ((?x1019 (* ?x7247 ?x8788)))
 (let ((?x855 (* ?x7248 |v4:13|)))
 (let ((?x382 (* 20.0 |v17:0|)))
 (let ((?x36 (+ (+ (+ (+ (* ?x7539 |v1:16|) (* ?x7248 ?x788)) (* 5.0 |v2:15|)) ?x382) ?x855)))
 (let (($x5749 (and (<= (+ (+ ?x36 ?x1019) ?x3926) ?x6831) (<= (+ (+ ?x4610 ?x2418) (* 4.0 |v14:3|)) 20.0))))
 (let ((?x7661 (* ?x6417 |v13:4|)))
 (let ((?x1634 (* 10.0 |v14:3|)))
 (let ((?x4896 (+ (+ (+ (+ (* ?x8810 |v3:14|) (* ?x1580 |v12:5|)) (* 19.0 |v1:16|)) ?x1634) (* ?x156 |v14:3|))))
 (let ((?x2734 (* 14.0 |v16:1|)))
 (let ((?x5124 (* ?x252 ?x8099)))
 (let ((?x3659 (* 7.0 |v15:2|)))
 (let ((?x7740 (+ (+ (+ (+ (+ ?x5009 (* ?x6417 |v15:2|)) (* 8.0 ?x2673)) ?x6854) ?x3659) ?x5124)))
 (let (($x3964 (or (<= (+ ?x7740 ?x2734) 4.0) (<= (+ (+ ?x4896 (* ?x156 ?x8099)) ?x7661) ?x1191))))
 (let (($x1525 (or (and $x3964 $x5749) (and (<= (+ (+ (+ ?x2625 ?x5083) (* 13.0 |v16:1|)) ?x4732) ?x2016) $x7268))))
 (let ((?x2660 (* 20.0 |v12:5|)))
 (let ((?x6455 (+ (+ (+ (* ?x4265 |v12:5|) (* 0.0 ?x2673)) (* 11.0 ?x8788)) (* 3.0 ?x7993))))
 (let ((?x6002 (* ?x6905 |v4:13|)))
 (let ((?x4257 (* 2.0 |v2:15|)))
 (let ((?x2420 (* 6.0 |v3:14|)))
 (let ((?x4528 (+ (+ (+ (+ (* ?x4265 |v4:13|) (* ?x6831 |v13:4|)) (* 19.0 |v2:15|)) ?x2420) ?x855)))
 (let (($x3817 (or (<= (+ (+ ?x4528 ?x4257) ?x6002) 2.0) (<= (+ (+ (+ ?x6455 ?x2660) ?x6780) (* ?x252 |v14:3|)) ?x156))))
 (let ((?x8743 (* ?x156 |v3:14|)))
 (let ((?x4387 (* 16.0 ?x2673)))
 (let ((?x3145 (+ (+ (+ (+ (* ?x156 |v5:12|) ?x2161) (* 20.0 |v15:2|)) (* ?x4450 |v16:1|)) ?x4387)))
 (let ((?x563 (* 13.0 ?x7993)))
 (let ((?x8135 (* ?x1191 ?x8099)))
 (let ((?x4415 (* 6.0 |v15:2|)))
 (let ((?x2211 (+ (+ (+ (* 14.0 ?x7993) (* ?x6831 |v15:2|)) (* ?x3175 |v5:12|)) (* ?x7539 |v13:4|))))
 (let (($x4435 (and (<= (+ (+ (+ ?x2211 ?x4415) ?x8135) ?x563) ?x7248) (<= (+ (+ ?x3145 ?x8743) ?x1782) 7.0))))
 (let ((?x5074 (* 11.0 |v17:0|)))
 (let ((?x478 (* ?x156 |v17:0|)))
 (let ((?x7161 (+ (+ (+ (+ (* 10.0 |v12:5|) (* 0.0 |v4:13|)) (* ?x7683 ?x788)) ?x478) ?x5074)))
 (let ((?x247 (+ (+ (+ (+ (* 14.0 |v2:15|) (* ?x1580 ?x2673)) (* ?x6417 |v15:2|)) |v12:5|) ?x2329)))
 (let ((?x2700 (* 5.0 ?x2673)))
 (let ((?x5936 (+ (+ (+ (+ (* 11.0 ?x2673) ?x1915) (* ?x252 |v4:13|)) ?x422) (* ?x3985 ?x8788))))
 (let (($x7890 (or (<= (+ (+ ?x5936 (* ?x7247 |v15:2|)) ?x2700) 11.0) (<= (+ (+ ?x247 (* 8.0 ?x8099)) (* ?x7247 |v17:0|)) 1.0))))
 (let (($x4813 (or (or $x7890 (<= (+ (+ ?x7161 (* 17.0 |v14:3|)) (* ?x1580 |v15:2|)) 4.0)) (or $x4435 $x3817))))
 (let ((?x4404 (* 17.0 |v0:17|)))
 (let ((?x8500 (* ?x4450 |v4:13|)))
 (let ((?x2014 (+ (+ (+ (+ (* 12.0 |v13:4|) (* ?x252 |v1:16|)) (* 7.0 ?x2203)) ?x3089) ?x8500)))
 (let ((?x5319 (* 12.0 |v4:13|)))
 (let ((?x198 (* 14.0 |v2:15|)))
 (let ((?x8499 (+ (+ (+ (+ (* ?x6831 |v2:15|) ?x3048) (* ?x7683 ?x7993)) (* 14.0 ?x2203)) (* 11.0 ?x2203))))
 (let ((?x2010 (* 11.0 |v14:3|)))
 (let ((?x1049 (* ?x7539 |v4:13|)))
 (let ((?x1748 (* 0.0 |v13:4|)))
 (let ((?x3016 (+ (+ (+ (+ (* ?x735 |v0:17|) (* 19.0 |v16:1|)) (* 13.0 |v4:13|)) ?x1748) (* ?x5116 |v13:4|))))
 (let (($x2889 (or (<= (+ (+ ?x3016 ?x1049) ?x2010) 9.0) (<= (+ (+ ?x8499 ?x198) ?x5319) 6.0))))
 (let ((?x3855 (* ?x4450 ?x788)))
 (let ((?x5044 (+ (+ (+ (* 16.0 ?x7993) (* ?x1580 ?x788)) (* 0.0 |v5:12|)) (* 7.0 |v16:1|))))
 (let ((?x2988 (* 12.0 ?x788)))
 (let ((?x3638 (+ (+ (+ (+ (* ?x3175 |v17:0|) ?x5038) (* ?x7248 |v15:2|)) (* 6.0 ?x2673)) (* ?x156 |v16:1|))))
 (let (($x2744 (and (<= (+ (+ ?x3638 ?x4020) ?x2988) ?x3985) (<= (+ (+ (+ ?x5044 ?x3855) ?x9027) ?x6973) ?x1580))))
 (let ((?x3155 (* 0.0 |v5:12|)))
 (let ((?x3363 (* 4.0 ?x8099)))
 (let ((?x5314 (* 15.0 |v15:2|)))
 (let ((?x4221 (+ (+ (+ (+ (* 10.0 |v1:16|) (* 15.0 |v13:4|)) (* 11.0 |v4:13|)) ?x5314) ?x1207)))
 (let ((?x1886 (* 7.0 ?x2203)))
 (let ((?x8545 (* 0.0 |v0:17|)))
 (let ((?x4186 (+ (+ (+ (+ (+ ?x8545 ?x382) (* ?x6905 |v17:0|)) (* 20.0 |v14:3|)) ?x8545) |v5:12|)))
 (let ((?x3087 (* ?x4265 |v17:0|)))
 (let ((?x3492 (+ (+ (+ (+ (+ (* ?x3175 |v12:5|) ?x5962) ?x3855) ?x4912) (* 0.0 |v17:0|)) ?x3087)))
 (let (($x388 (and (<= (+ ?x3492 ?x3855) 16.0) (and (<= (+ ?x4186 ?x1886) 9.0) (<= (+ (+ ?x4221 ?x3363) ?x3155) 8.0)))))
 (let (($x2705 (or (and $x388 (or $x2744 $x2889)) (<= (+ (+ ?x2014 (* ?x8810 ?x2203)) ?x4404) ?x7247))))
 (let ((?x5768 (* 6.0 |v5:12|)))
 (let ((?x5203 (+ (+ (+ (+ ?x5074 (* 3.0 |v16:1|)) (* ?x252 |v15:2|)) (* 15.0 ?x2203)) ?x3686)))
 (let ((?x6559 (* 5.0 |v14:3|)))
 (let ((?x3831 (+ (+ (+ (+ (+ (* ?x8810 |v3:14|) ?x18) ?x8135) (* ?x108 ?x788)) ?x6559) ?x282)))
 (let ((?x4693 (* 8.0 ?x8788)))
 (let ((?x5634 (* ?x6831 ?x2673)))
 (let ((?x6551 (* 19.0 ?x8099)))
 (let ((?x2709 (+ (+ (+ (+ (+ ?x4576 ?x4963) (* ?x4450 |v12:5|)) (* ?x3985 |v5:12|)) ?x6551) ?x5634)))
 (let ((?x6490 (+ (+ (+ (* 17.0 |v16:1|) (* ?x7539 |v16:1|)) (* ?x7247 ?x2203)) (* 4.0 |v17:0|))))
 (let ((?x8255 (* ?x6831 |v3:14|)))
 (let ((?x6445 (+ (+ (+ (+ (* ?x4450 |v12:5|) (* ?x7683 |v4:13|)) (* ?x2016 ?x7993)) ?x8255) (* ?x6831 ?x7993))))
 (let (($x3052 (and (<= (+ (+ ?x6445 ?x4599) ?x7315) 7.0) (<= (+ (+ (+ ?x6490 ?x478) ?x3855) (* 10.0 ?x7993)) ?x6905))))
 (let (($x65 (or $x3052 (or (<= (+ ?x2709 ?x4693) ?x3175) (<= (+ ?x3831 (* ?x4450 ?x2203)) 6.0)))))
 (let ((?x1539 (+ (+ (+ (* 5.0 |v12:5|) (* ?x108 |v14:3|)) (* 7.0 |v13:4|)) (* ?x4450 |v13:4|))))
 (let (($x5168 (<= (+ (+ (+ ?x1539 (* ?x5116 |v15:2|)) (* ?x4450 ?x8788)) (* 7.0 ?x8788)) ?x4265)))
 (let ((?x7996 (* ?x5116 ?x2203)))
 (let ((?x8539 (+ (+ (+ (+ (* ?x2016 ?x8788) (* 5.0 ?x8099)) ?x4722) ?x2907) (* ?x6417 ?x2673))))
 (let ((?x7443 (* 8.0 ?x788)))
 (let ((?x4676 (+ (+ (+ (+ (* 11.0 ?x8788) ?x1201) (* ?x7247 |v2:15|)) (* ?x7539 |v16:1|)) ?x3155)))
 (let (($x1567 (and (<= (+ (+ ?x4676 ?x1201) ?x7443) 4.0) (<= (+ (+ ?x8539 ?x7996) ?x5460) ?x3985))))
 (let ((?x4379 (* 14.0 ?x8099)))
 (let ((?x8995 (+ (+ (+ (+ (* 2.0 |v3:14|) (* ?x108 ?x788)) ?x4379) (* 17.0 |v4:13|)) ?x4379)))
 (let ((?x3179 (* ?x3175 |v17:0|)))
 (let ((?x7186 (* 18.0 |v17:0|)))
 (let ((?x2357 (+ (+ (+ (+ (+ (* ?x7247 |v14:3|) ?x7658) ?x5768) (* ?x7539 |v5:12|)) ?x7186) ?x3179)))
 (let (($x1883 (or (<= (+ ?x2357 (* 2.0 ?x7993)) 4.0) (<= (+ (+ ?x8995 ?x6310) ?x5700) ?x156))))
 (let ((?x5832 (* 17.0 ?x7993)))
 (let ((?x385 (* ?x5116 |v2:15|)))
 (let ((?x2184 (+ (+ (+ (+ (* ?x8810 |v3:14|) (* ?x7248 |v16:1|)) (* 11.0 |v12:5|)) ?x2700) ?x385)))
 (let ((?x3362 (* 12.0 |v3:14|)))
 (let ((?x7792 (+ (+ (+ (+ (* 4.0 |v4:13|) (* ?x735 |v3:14|)) (* 13.0 ?x2673)) ?x7243) ?x3362)))
 (let (($x2674 (and (<= (+ (+ ?x7792 ?x5038) ?x7996) 20.0) (<= (+ (+ ?x2184 ?x1748) ?x5832) ?x7248))))
 (let ((?x4501 (* ?x3175 |v1:16|)))
 (let ((?x1083 (* ?x7683 |v12:5|)))
 (let ((?x4302 (+ (+ (+ (+ (* ?x2016 |v13:4|) ?x5294) (* 7.0 |v13:4|)) (* 14.0 |v14:3|)) ?x1083)))
 (let (($x514 (and (or (<= (+ (+ ?x4302 ?x4501) (* ?x6905 |v15:2|)) ?x735) $x2674) (or $x1883 $x1567))))
 (let (($x8982 (and (or $x514 (and $x5168 $x65)) (<= (+ (+ ?x5203 (* 18.0 ?x8788)) ?x5768) 15.0))))
 (let ((?x152 (* 5.0 |v2:15|)))
 (let ((?x4141 (* 3.0 |v16:1|)))
 (let ((?x906 (* 6.0 ?x2673)))
 (let ((?x5575 (* 11.0 ?x8788)))
 (let ((?x4303 (+ (+ (+ (+ (* ?x108 |v4:13|) (* 16.0 |v17:0|)) (* ?x3175 |v15:2|)) ?x5575) ?x906)))
 (let ((?x8510 (* 3.0 |v3:14|)))
 (let ((?x2726 (* 2.0 |v15:2|)))
 (let ((?x4371 (+ (+ (+ (+ (* ?x1191 |v13:4|) (* 11.0 |v12:5|)) (* 20.0 ?x2673)) ?x2726) (* ?x6831 ?x788))))
 (let ((?x8543 (* 15.0 ?x788)))
 (let ((?x4653 (* 16.0 |v3:14|)))
 (let ((?x8629 (* ?x108 |v14:3|)))
 (let ((?x2465 (+ (+ (+ (+ (* ?x6831 ?x8099) (* 3.0 ?x8788)) (* 19.0 |v2:15|)) ?x8629) ?x4653)))
 (let (($x7440 (or (<= (+ (+ ?x2465 ?x8543) |v0:17|) 10.0) (<= (+ (+ ?x4371 ?x1634) ?x8510) ?x4450))))
 (let ((?x5215 (* 8.0 |v2:15|)))
 (let ((?x3320 (* ?x7683 |v3:14|)))
 (let ((?x4072 (* 12.0 |v0:17|)))
 (let ((?x5191 (+ (+ (+ (+ (+ (* 18.0 ?x2673) (* 2.0 ?x8788)) ?x5124) ?x3686) ?x4072) ?x3320)))
 (let ((?x638 (* ?x6417 ?x7993)))
 (let ((?x7537 (* 8.0 |v1:16|)))
 (let ((?x3292 (+ (+ (+ (+ (+ (* 15.0 |v16:1|) (* ?x2016 |v2:15|)) ?x3926) ?x3087) ?x9150) ?x7537)))
 (let ((?x943 (* 0.0 ?x2673)))
 (let ((?x8656 (* ?x735 |v0:17|)))
 (let ((?x7530 (+ (+ (+ (+ (* ?x3985 |v0:17|) (* ?x1191 ?x7993)) ?x6420) (* ?x4450 |v15:2|)) ?x8937)))
 (let ((?x5263 (* ?x252 |v1:16|)))
 (let ((?x8586 (+ (+ (+ (+ (+ ?x2700 (* 6.0 |v13:4|)) (* 17.0 |v4:13|)) ?x3131) ?x7186) ?x5263)))
 (let ((?x9101 (* ?x735 |v3:14|)))
 (let ((?x4028 (* ?x3985 ?x2673)))
 (let ((?x4015 (+ (+ (+ (+ (* ?x6905 |v14:3|) ?x3659) (* 0.0 |v16:1|)) (* ?x4450 ?x8099)) ?x4028)))
 (let ((?x376 (* 6.0 |v16:1|)))
 (let ((?x4321 (+ (+ (+ (+ ?x5485 ?x2203) (* 14.0 |v5:12|)) (* 5.0 |v12:5|)) (* ?x735 |v15:2|))))
 (let (($x181 (or (<= (+ (+ ?x4321 ?x5124) ?x376) 11.0) (<= (+ (+ ?x4015 (* 3.0 ?x2203)) ?x9101) ?x3985))))
 (let (($x4907 (and $x181 (or (<= (+ ?x8586 ?x3155) 13.0) (<= (+ (+ ?x7530 ?x8656) ?x943) 16.0)))))
 (let (($x4830 (and $x4907 (and (or (<= (+ ?x3292 ?x638) ?x156) (<= (+ ?x5191 ?x5215) 18.0)) $x7440))))
 (let ((?x2119 (* ?x7539 |v1:16|)))
 (let ((?x2929 (+ (+ (+ (+ (* ?x5116 |v4:13|) (* ?x6905 ?x2203)) (* ?x1580 ?x8788)) ?x5494) (* ?x3985 ?x788))))
 (let ((?x2703 (* 11.0 |v12:5|)))
 (let ((?x7606 (+ (+ (+ (+ (* ?x8810 |v17:0|) (* 18.0 |v16:1|)) (* 5.0 ?x788)) ?x3013) (* ?x3985 |v17:0|))))
 (let (($x1133 (or (<= (+ (+ ?x7606 ?x2703) (* ?x3985 ?x8099)) 19.0) (<= (+ (+ ?x2929 ?x4387) ?x2119) 8.0))))
 (let ((?x2307 (* ?x5116 |v5:12|)))
 (let ((?x7865 (+ (+ (+ (+ (+ ?x7658 (* 2.0 |v13:4|)) (* 10.0 |v0:17|)) ?x6559) ?x2307) (* ?x156 ?x2203))))
 (let ((?x3499 (* 20.0 |v3:14|)))
 (let ((?x2592 (+ (+ (+ (+ (* ?x4265 |v13:4|) ?x3048) (* ?x7247 |v16:1|)) (* 7.0 |v0:17|)) |v0:17|)))
 (let (($x390 (and (and (<= (+ (+ ?x2592 ?x4141) ?x3499) 16.0) (<= (+ ?x7865 ?x5768) 11.0)) $x1133)))
 (let ((?x5846 (* 11.0 |v5:12|)))
 (let ((?x5025 (* 6.0 |v0:17|)))
 (let ((?x713 (+ (+ (+ (+ (+ (* 11.0 ?x7993) ?x282) (* 17.0 ?x8788)) ?x1748) ?x5025) ?x5846)))
 (let ((?x8298 (* 6.0 |v1:16|)))
 (let ((?x2950 (* ?x1191 ?x7993)))
 (let ((?x1319 (* 5.0 ?x2203)))
 (let ((?x6682 (+ (+ (+ (+ (* ?x4265 ?x8788) (* ?x1580 |v4:13|)) (* 18.0 |v2:15|)) |v1:16|) ?x1319)))
 (let (($x5573 (or (<= (+ (+ ?x6682 ?x2950) ?x8298) 18.0) (<= (+ ?x713 (* ?x1580 |v16:1|)) 1.0))))
 (let ((?x5343 (+ (+ (+ (+ (* 16.0 |v5:12|) (* ?x8810 |v3:14|)) ?x1566) ?x7971) (* 3.0 |v4:13|))))
 (let ((?x8584 (+ (+ (+ (+ (* 20.0 |v2:15|) (* 4.0 |v15:2|)) (* 17.0 |v3:14|)) ?x7661) ?x1083)))
 (let (($x1429 (and (<= (+ (+ ?x8584 ?x2950) (* ?x8810 |v14:3|)) ?x8810) (<= (+ (+ ?x5343 (* ?x6905 ?x8099)) ?x2119) ?x3985))))
 (let ((?x4417 (* ?x252 |v2:15|)))
 (let ((?x3708 (+ (+ (+ (+ (* 4.0 ?x788) (* ?x7683 |v16:1|)) (* 15.0 ?x7993)) ?x8099) ?x4072)))
 (let ((?x1817 (* ?x3985 |v1:16|)))
 (let ((?x4383 (+ (+ (+ (+ (+ (* 6.0 ?x2203) ?x638) ?x5124) (* 12.0 |v1:16|)) ?x5846) (* ?x4265 ?x7993))))
 (let ((?x3566 (* ?x7539 |v16:1|)))
 (let ((?x8669 (* ?x1191 |v1:16|)))
 (let ((?x8878 (+ (+ (+ (+ (+ ?x4417 (* 6.0 ?x8788)) |v3:14|) (* ?x7247 |v3:14|)) ?x2703) ?x8669)))
 (let ((?x6319 (+ (+ (+ (+ ?x5263 ?x4693) (* 6.0 ?x8788)) (* 4.0 |v15:2|)) (* ?x6905 |v13:4|))))
 (let (($x2279 (or (<= (+ (+ ?x6319 ?x5294) (* ?x1191 |v17:0|)) 16.0) (<= (+ ?x8878 ?x3566) 14.0))))
 (let (($x8678 (or $x2279 (or (<= (+ ?x4383 ?x1817) ?x6905) (<= (+ (+ ?x3708 ?x4417) ?x8423) 17.0)))))
 (let ((?x3961 (* 0.0 |v14:3|)))
 (let ((?x1134 (* 18.0 |v5:12|)))
 (let ((?x5102 (+ (+ (+ (+ (* ?x6831 |v14:3|) ?x8298) (* ?x4265 ?x8099)) (* ?x7248 |v2:15|)) ?x1134)))
 (let ((?x7359 (* 9.0 |v17:0|)))
 (let ((?x8276 (+ (+ (+ (+ (* 11.0 |v16:1|) (* ?x1580 ?x788)) ?x2734) ?x8130) (* ?x6417 ?x2203))))
 (let (($x998 (or (<= (+ (+ ?x8276 (* 19.0 |v17:0|)) ?x7359) 4.0) (<= (+ (+ ?x5102 ?x4744) ?x3961) ?x6905))))
 (let ((?x7551 (* ?x2016 |v1:16|)))
 (let ((?x8275 (+ (+ (+ (+ (+ ?x2644 (* 14.0 ?x2203)) ?x2196) (* 16.0 |v2:15|)) ?x3089) (* ?x252 ?x8788))))
 (let (($x994 (or (and (or (<= (+ ?x8275 ?x7551) ?x3175) $x998) $x8678) (and (and $x1429 $x5573) $x390))))
 (let (($x6145 (and (and (and $x994 (and $x4830 (<= (+ (+ ?x4303 ?x4141) ?x152) ?x7248))) $x8982) (and (or $x2705 (or $x4813 $x1525)) $x1438))))
 (let (($x4184 (not (= |v6:11_st| (RMk1 val!9311)))))
 (let (($x3947 (not (= |v7:10_st| (RMk1 val!9310)))))
 (let (($x3746 (not (= |v8:9_st| (RMk1 val!9309)))))
 (let (($x3505 (not (= |v9:8_st| (RMk1 val!9308)))))
 (let (($x1202 (not (= |v10:7_st| (RMk1 val!9307)))))
 (let (($x2351 (not (= |v11:6_st| (RMk1 val!9306)))))
 (and $x2351 $x1202 $x3505 $x3746 $x3947 $x4184 $x6145)))))))))))))))))))))))))))))))))))))))))))))))))))))))))))))))))))))))))))))))))))))))))))))))))))))))))))))))))))))))))))))))))))))))))))))))))))))))))))))))))))))))))))))))))))))))))))))))))))))))))))))))))))))))))))))))))))))))))))))))))))))))))))))))))))))))))))))))))))))))))))))))))))))))))))))))))))))))))))))))))))))))))))))))))))))))))))))))
 )
 )
 )
 )
 )
 )
 )
 )
 )
 )
 )
 )
 )
 )
 )
 )
 )
 )
(check-sat)
